NAME: GRASP_16_0
TYPE: TSP
COMMENT: line_16_0
DIMENSION: 16
EDGE_WEIGHT_TYPE: EUC_2D
NODE_COORD_SECTION
1 0.0 55.0
2 0.0 133.0
3 0.0 14.0
4 0.0 148.0
5 0.0 86.0
6 0.0 120.0
7 0.0 58.0
8 0.0 157.0
9 0.0 51.0
10 0.0 102.0
11 0.0 41.0
12 0.0 137.0
13 0.0 114.0
14 0.0 38.0
15 0.0 92.0
16 0.0 6.0
